! Touchstone simulation data from EMX version 6.0
! Tue Jun 30 14:05:34 2026
! EMX was run as:
! /home/IC/EDA/INTEGRAND60/bin/emx
! /home/IC/EDA/single_inductor_lq_surrogate/emx/LQ_N3p5_R101p25_W10p4_S15/LQ_N3p5_R101p25_W10p4_S15.gds
! LQ_N3p5_R101p25_W10p4_S15
! /home/IC/EDA/INTEGRAND60/virtuoso_ui/emxinterface/processes/fdl_stack.proc
! --3d=m4,m5 --via-sidewalls=v4 --via-inductance=v4 --sweep 3e9 4.5e9
! --sweep-stepsize=5e8 --format=touchstone --s-impedance=50
! --s-file=/home/IC/EDA/single_inductor_lq_surrogate/emx/LQ_N3p5_R101p25_W10p4_S15/LQ_N3p5_R101p25_W10p4_S15.s2p
! --internal=P1,m5,8 --internal=P2,m5,8 -p Pdiff=P1:P2 --include-command-line
# Hz S RI R 50
3.000000e+09 5.733158e-01 7.933890e-01
3.500000e+09 6.764476e-01 7.124984e-01
4.000000e+09 7.515248e-01 6.371762e-01
4.500000e+09 8.072434e-01 5.687404e-01
