! Touchstone simulation data from EMX version 6.0
! Mon Jun 29 22:14:48 2026
! EMX was run as:
! /home/IC/EDA/INTEGRAND60/bin/emx
! /home/IC/EDA/single_inductor_lq_surrogate/emx/LQ_N2p5_R36_W11p2_S15/LQ_N2p5_R36_W11p2_S15.gds
! LQ_N2p5_R36_W11p2_S15
! /home/IC/EDA/INTEGRAND60/virtuoso_ui/emxinterface/processes/fdl_stack.proc
! --3d=m4,m5 --via-sidewalls=v4 --via-inductance=v4 --sweep 3e9 4.5e9
! --sweep-stepsize=5e8 --format=touchstone --s-impedance=50
! --s-file=/home/IC/EDA/single_inductor_lq_surrogate/emx/LQ_N2p5_R36_W11p2_S15/LQ_N2p5_R36_W11p2_S15.s2p
! --internal=P1,m5,8 --internal=P2,m5,8 -p Pdiff=P1:P2 --include-command-line
# Hz S RI R 50
3.000000e+09 -6.470129e-01 7.188825e-01
3.500000e+09 -5.564150e-01 7.916669e-01
4.000000e+09 -4.632833e-01 8.503349e-01
4.500000e+09 -3.699565e-01 8.958450e-01
