! Touchstone simulation data from EMX version 6.0
! Mon Jun 29 22:16:08 2026
! EMX was run as:
! /home/IC/EDA/INTEGRAND60/bin/emx
! /home/IC/EDA/single_inductor_lq_surrogate/emx/LQ_N2p5_R39_W11p2_S14/LQ_N2p5_R39_W11p2_S14.gds
! LQ_N2p5_R39_W11p2_S14
! /home/IC/EDA/INTEGRAND60/virtuoso_ui/emxinterface/processes/fdl_stack.proc
! --3d=m4,m5 --via-sidewalls=v4 --via-inductance=v4 --sweep 3e9 4.5e9
! --sweep-stepsize=5e8 --format=touchstone --s-impedance=50
! --s-file=/home/IC/EDA/single_inductor_lq_surrogate/emx/LQ_N2p5_R39_W11p2_S14/LQ_N2p5_R39_W11p2_S14.s2p
! --internal=P1,m5,8 --internal=P2,m5,8 -p Pdiff=P1:P2 --include-command-line
# Hz S RI R 50
3.000000e+09 -6.254215e-01 7.379468e-01
3.500000e+09 -5.299596e-01 8.098471e-01
4.000000e+09 -4.325865e-01 8.666146e-01
4.500000e+09 -3.357590e-01 9.095289e-01
