! Touchstone simulation data from EMX version 6.0
! Mon Jun 29 22:39:48 2026
! EMX was run as:
! /home/IC/EDA/INTEGRAND60/bin/emx
! /home/IC/EDA/single_inductor_lq_surrogate/emx/LQ_N2p5_R65_W10p4_S15/LQ_N2p5_R65_W10p4_S15.gds
! LQ_N2p5_R65_W10p4_S15
! /home/IC/EDA/INTEGRAND60/virtuoso_ui/emxinterface/processes/fdl_stack.proc
! --3d=m4,m5 --via-sidewalls=v4 --via-inductance=v4 --sweep 3e9 4.5e9
! --sweep-stepsize=5e8 --format=touchstone --s-impedance=50
! --s-file=/home/IC/EDA/single_inductor_lq_surrogate/emx/LQ_N2p5_R65_W10p4_S15/LQ_N2p5_R65_W10p4_S15.s2p
! --internal=P1,m5,8 --internal=P2,m5,8 -p Pdiff=P1:P2 --include-command-line
# Hz S RI R 50
3.000000e+09 -3.354311e-01 9.076641e-01
3.500000e+09 -1.955722e-01 9.496034e-01
4.000000e+09 -6.529245e-02 9.690488e-01
4.500000e+09 5.317592e-02 9.715213e-01
