! Touchstone simulation data from EMX version 6.0
! Mon Jun 29 21:53:06 2026
! EMX was run as:
! /home/IC/EDA/INTEGRAND60/bin/emx
! /home/IC/EDA/single_inductor_lq_surrogate/emx/LQ_N2p5_R90_W12_S18/LQ_N2p5_R90_W12_S18.gds
! LQ_N2p5_R90_W12_S18
! /home/IC/EDA/INTEGRAND60/virtuoso_ui/emxinterface/processes/fdl_stack.proc
! --3d=m4,m5 --via-sidewalls=v4 --via-inductance=v4 --sweep 3e9 4.5e9
! --sweep-stepsize=5e8 --format=touchstone --s-impedance=50
! --s-file=/home/IC/EDA/single_inductor_lq_surrogate/emx/LQ_N2p5_R90_W12_S18/LQ_N2p5_R90_W12_S18.s2p
! --internal=P1,m5,8 --internal=P2,m5,8 -p Pdiff=P1:P2 --include-command-line
# Hz S RI R 50
3.000000e+09 -5.947032e-02 9.697207e-01
3.500000e+09 9.595109e-02 9.695653e-01
4.000000e+09 2.297241e-01 9.494770e-01
4.500000e+09 3.433005e-01 9.170777e-01
