! Touchstone simulation data from EMX version 6.0
! Tue Jun 30 13:44:11 2026
! EMX was run as:
! /home/IC/EDA/INTEGRAND60/bin/emx
! /home/IC/EDA/single_inductor_lq_surrogate/emx/LQ_N4p5_R55p6_W12_S16/LQ_N4p5_R55p6_W12_S16.gds
! LQ_N4p5_R55p6_W12_S16
! /home/IC/EDA/INTEGRAND60/virtuoso_ui/emxinterface/processes/fdl_stack.proc
! --3d=m4,m5 --via-sidewalls=v4 --via-inductance=v4 --sweep 3e9 4.5e9
! --sweep-stepsize=5e8 --format=touchstone --s-impedance=50
! --s-file=/home/IC/EDA/single_inductor_lq_surrogate/emx/LQ_N4p5_R55p6_W12_S16/LQ_N4p5_R55p6_W12_S16.s2p
! --internal=P1,m5,8 --internal=P2,m5,8 -p Pdiff=P1:P2 --include-command-line
# Hz S RI R 50
3.000000e+09 5.677459e-01 7.949481e-01
3.500000e+09 6.710835e-01 7.151827e-01
4.000000e+09 7.464015e-01 6.407666e-01
4.500000e+09 8.023634e-01 5.731737e-01
