! Touchstone simulation data from EMX version 6.0
! Mon Jun 29 19:49:29 2026
! EMX was run as:
! /home/IC/EDA/INTEGRAND60/bin/emx
! /home/IC/EDA/single_inductor_lq_surrogate/emx/LQ_N2p5_R64_W9p6_S12/LQ_N2p5_R64_W9p6_S12.gds
! LQ_N2p5_R64_W9p6_S12
! /home/IC/EDA/INTEGRAND60/virtuoso_ui/emxinterface/processes/fdl_stack.proc
! --3d=m4,m5 --via-sidewalls=v4 --via-inductance=v4 --sweep 3e9 4.5e9
! --sweep-stepsize=5e8 --format=touchstone --s-impedance=50
! --s-file=/home/IC/EDA/single_inductor_lq_surrogate/emx/LQ_N2p5_R64_W9p6_S12/LQ_N2p5_R64_W9p6_S12.s2p
! --internal=P1,m5,8 --internal=P2,m5,8 -p Pdiff=P1:P2 --include-command-line
# Hz S RI R 50
3.000000e+09 -3.599523e-01 8.966628e-01
3.500000e+09 -2.235879e-01 9.425838e-01
4.000000e+09 -9.488603e-02 9.667485e-01
4.500000e+09 2.380542e-02 9.734968e-01
