! Touchstone simulation data from EMX version 6.0
! Mon Jun 29 19:52:35 2026
! EMX was run as:
! /home/IC/EDA/INTEGRAND60/bin/emx
! /home/IC/EDA/single_inductor_lq_surrogate/emx/LQ_N3p5_R64_W10p4_S14/LQ_N3p5_R64_W10p4_S14.gds
! LQ_N3p5_R64_W10p4_S14
! /home/IC/EDA/INTEGRAND60/virtuoso_ui/emxinterface/processes/fdl_stack.proc
! --3d=m4,m5 --via-sidewalls=v4 --via-inductance=v4 --sweep 3e9 4.5e9
! --sweep-stepsize=5e8 --format=touchstone --s-impedance=50
! --s-file=/home/IC/EDA/single_inductor_lq_surrogate/emx/LQ_N3p5_R64_W10p4_S14/LQ_N3p5_R64_W10p4_S14.s2p
! --internal=P1,m5,8 --internal=P2,m5,8 -p Pdiff=P1:P2 --include-command-line
# Hz S RI R 50
3.000000e+09 2.108838e-01 9.468445e-01
3.500000e+09 3.564932e-01 9.064110e-01
4.000000e+09 4.729765e-01 8.553060e-01
4.500000e+09 5.660576e-01 8.002597e-01
