! Touchstone simulation data from EMX version 6.0
! Mon Jun 29 20:15:05 2026
! EMX was run as:
! /home/IC/EDA/INTEGRAND60/bin/emx
! /home/IC/EDA/single_inductor_lq_surrogate/emx/LQ_N3p5_R48_W11p2_S16/LQ_N3p5_R48_W11p2_S16.gds
! LQ_N3p5_R48_W11p2_S16
! /home/IC/EDA/INTEGRAND60/virtuoso_ui/emxinterface/processes/fdl_stack.proc
! --3d=m4,m5 --via-sidewalls=v4 --via-inductance=v4 --sweep 3e9 4.5e9
! --sweep-stepsize=5e8 --format=touchstone --s-impedance=50
! --s-file=/home/IC/EDA/single_inductor_lq_surrogate/emx/LQ_N3p5_R48_W11p2_S16/LQ_N3p5_R48_W11p2_S16.s2p
! --internal=P1,m5,8 --internal=P2,m5,8 -p Pdiff=P1:P2 --include-command-line
# Hz S RI R 50
3.000000e+09 1.324168e-02 9.671078e-01
3.500000e+09 1.670668e-01 9.562753e-01
4.000000e+09 2.968905e-01 9.275429e-01
4.500000e+09 4.052343e-01 8.885917e-01
