! Touchstone simulation data from EMX version 6.0
! Mon Jun 29 21:25:07 2026
! EMX was run as:
! /home/IC/EDA/INTEGRAND60/bin/emx
! /home/IC/EDA/single_inductor_lq_surrogate/emx/LQ_N4p5_R56_W11p2_S16/LQ_N4p5_R56_W11p2_S16.gds
! LQ_N4p5_R56_W11p2_S16
! /home/IC/EDA/INTEGRAND60/virtuoso_ui/emxinterface/processes/fdl_stack.proc
! --3d=m4,m5 --via-sidewalls=v4 --via-inductance=v4 --sweep 3e9 4.5e9
! --sweep-stepsize=5e8 --format=touchstone --s-impedance=50
! --s-file=/home/IC/EDA/single_inductor_lq_surrogate/emx/LQ_N4p5_R56_W11p2_S16/LQ_N4p5_R56_W11p2_S16.s2p
! --internal=P1,m5,8 --internal=P2,m5,8 -p Pdiff=P1:P2 --include-command-line
# Hz S RI R 50
3.000000e+09 5.688677e-01 7.944526e-01
3.500000e+09 6.719508e-01 7.147036e-01
4.000000e+09 7.468085e-01 6.403686e-01
4.500000e+09 8.022534e-01 5.731418e-01
