! Touchstone simulation data from EMX version 6.0
! Mon Jun 29 20:50:10 2026
! EMX was run as:
! /home/IC/EDA/INTEGRAND60/bin/emx
! /home/IC/EDA/single_inductor_lq_surrogate/emx/LQ_N2p5_R66_W9p6_S12/LQ_N2p5_R66_W9p6_S12.gds
! LQ_N2p5_R66_W9p6_S12
! /home/IC/EDA/INTEGRAND60/virtuoso_ui/emxinterface/processes/fdl_stack.proc
! --3d=m4,m5 --via-sidewalls=v4 --via-inductance=v4 --sweep 3e9 4.5e9
! --sweep-stepsize=5e8 --format=touchstone --s-impedance=50
! --s-file=/home/IC/EDA/single_inductor_lq_surrogate/emx/LQ_N2p5_R66_W9p6_S12/LQ_N2p5_R66_W9p6_S12.s2p
! --internal=P1,m5,8 --internal=P2,m5,8 -p Pdiff=P1:P2 --include-command-line
# Hz S RI R 50
3.000000e+09 -3.368704e-01 9.055320e-01
3.500000e+09 -1.982143e-01 9.482273e-01
4.000000e+09 -6.839210e-02 9.690745e-01
4.500000e+09 5.053581e-02 9.728497e-01
