! Touchstone simulation data from EMX version 6.0
! Tue Jun 30 10:43:35 2026
! EMX was run as:
! /home/IC/EDA/INTEGRAND60/bin/emx
! /home/IC/EDA/single_inductor_lq_surrogate/emx/LQ_N4p5_R48p05_W10p4_S14/LQ_N4p5_R48p05_W10p4_S14.gds
! LQ_N4p5_R48p05_W10p4_S14
! /home/IC/EDA/INTEGRAND60/virtuoso_ui/emxinterface/processes/fdl_stack.proc
! --3d=m4,m5 --via-sidewalls=v4 --via-inductance=v4 --sweep 3e9 4.5e9
! --sweep-stepsize=5e8 --format=touchstone --s-impedance=50
! --s-file=/home/IC/EDA/single_inductor_lq_surrogate/emx/LQ_N4p5_R48p05_W10p4_S14/LQ_N4p5_R48p05_W10p4_S14.s2p
! --internal=P1,m5,8 --internal=P2,m5,8 -p Pdiff=P1:P2 --include-command-line
# Hz S RI R 50
3.000000e+09 4.579506e-01 8.579876e-01
3.500000e+09 5.771500e-01 7.882939e-01
4.000000e+09 6.665638e-01 7.190317e-01
4.500000e+09 7.344495e-01 6.536560e-01
